
Gurobi 9.1.2 (win64) logging started Tue Dec  7 11:51:30 2021

Gurobi Optimizer version 9.1.2 build v9.1.2rc0 (win64)
Thread count: 8 physical cores, 8 logical processors, using up to 8 threads
Optimize a model with 1 rows, 34 columns and 33 nonzeros
Model fingerprint: 0xf94ef0bb
Variable types: 1 continuous, 33 integer (33 binary)
Coefficient statistics:
  Matrix range     [1e+00, 1e+01]
  Objective range  [1e+00, 1e+00]
  Bounds range     [1e+00, 1e+00]
  RHS range        [1e+01, 1e+01]
Presolve time: 0.00s
Presolved: 1 rows, 34 columns, 33 nonzeros
Variable types: 1 continuous, 33 integer (33 binary)

Root simplex log...

Iteration    Objective       Primal Inf.    Dual Inf.      Time
       0   -1.2225107e+00   1.142952e-01   0.000000e+00     16s
       3   -1.2225107e+00   0.000000e+00   0.000000e+00     16s

Root relaxation: objective -1.222511e+00, 3 iterations, 0.00 seconds

    Nodes    |    Current Node    |     Objective Bounds      |     Work
 Expl Unexpl |  Obj  Depth IntInf | Incumbent    BestBd   Gap | It/Node Time

     0     0   -1.22251    0    3          -   -1.22251      -     -   15s
H    0     0                       0.9172179   -1.22251   233%     -   15s
H    0     0                       0.9046561   -1.22251   235%     -   16s
H    0     0                       0.8805970   -1.22251   239%     -   17s
     0     0   -0.57906    0    6    0.88060   -0.57906   166%     -   17s
H    0     0                       0.8649474   -0.57906   167%     -   17s
     0     0   -0.37937    0    5    0.86495   -0.37937   144%     -   18s
     0     0   -0.31183    0    7    0.86495   -0.31183   136%     -   18s
     0     0   -0.30306    0    7    0.86495   -0.30306   135%     -   19s
     0     0   -0.29904    0    8    0.86495   -0.29904   135%     -   19s
     0     0   -0.29867    0    8    0.86495   -0.29867   135%     -   19s
     0     0   -0.29028    0    8    0.86495   -0.29028   134%     -   19s
     0     0   -0.26900    0    8    0.86495   -0.26900   131%     -   19s
     0     0   -0.26644    0    9    0.86495   -0.26644   131%     -   19s
     0     0   -0.26226    0    9    0.86495   -0.26226   130%     -   19s
     0     0   -0.25956    0    9    0.86495   -0.25956   130%     -   19s
     0     0   -0.25902    0    9    0.86495   -0.25902   130%     -   19s
     0     0   -0.25721    0    9    0.86495   -0.25721   130%     -   19s
     0     0   -0.25656    0    9    0.86495   -0.25656   130%     -   19s
     0     0   -0.22188    0    9    0.86495   -0.22188   126%     -   19s
     0     0   -0.22178    0    9    0.86495   -0.22178   126%     -   19s
     0     0   -0.19982    0    9    0.86495   -0.19982   123%     -   19s
     0     0   -0.19942    0    9    0.86495   -0.19942   123%     -   19s
     0     0   -0.19939    0    9    0.86495   -0.19939   123%     -   19s
     0     2    0.01527    0    9    0.86495    0.01527  98.2%     -   19s

Cutting planes:
  Clique: 1
  MIR: 8
  StrongCG: 1
  Lazy constraints: 30

Explored 63 nodes (300 simplex iterations) in 19.48 seconds
Thread count was 8 (of 8 available processors)

Solution count 4: 0.864947 0.880597 0.904656 0.917218 

Optimal solution found (tolerance 1.00e-04)
Best objective 8.649473942417e-01, best bound 8.649473942417e-01, gap 0.0000%

User-callback calls 365, time in user-callback 23.32 sec
